Minimize

5 var_0 + 4 var_1 + 3 var_2 + 5 var_3 + 5 var_4 + 8 var_5 + 8 var_6 + 7 var_7 + 6 var_8 + 10 var_9


Subject To

a0: var_0 + var_7 >= 1
a1: var_2 + var_6 + var_9 >= 1
a2: var_1 + var_4 + var_8 >= 1
a3: var_3 >= 1
a4: var_5 >= 1
b0: 5 var_0 + 7 var_7 <= 10
b1: 3 var_2 + 8 var_6 + 10 var_9 <= 10
b2: 4 var_1 + 5 var_4 + 6 var_8 <= 10
b3: 5 var_3 <= 10
b4: 8 var_5 <= 10
c0: 2 var_0 + 1 var_1 + 3 var_2 + 1 var_3 + 1 var_4 + 1 var_5 + 2 var_6 + 5 var_7 + 4 var_8 + 4 var_9 - 3 var_0 - 3 var_1 - 3 var_2 - 3 var_3 - 3 var_4 - 3 var_5 - 3 var_6 - 3 var_7 - 3 var_8 - 3 var_9 >= 0




Binary

var_0 var_1 var_2 var_3 var_4 var_5 var_6 var_7 var_8 var_9

 


End
